100 152716
42 19 32 80 63 94 73 75 76 34 96 36 81 99 41 25 86 12 82 1 68 21 40 35 95 23 50 3 49 60 20 55 66 56 64 79 59 52 51 4 62 77 28 10 78 100 24 89 84 61 17 18 8 90 38 44 69 93 88 67 26 48 27 92 54 5 87 91 58 33 70 45 6 72 65 11 46 2 30 83 7 47 14 71 9 37 43 16 57 74 85 13 98 31 39 53 29 22 97 15 
